unsat
(define-fun InvF ((x Int) (sn Int) (v1 Int) (v2 Int) (v3 Int)) Bool (and (or (= x sn) (= sn (- 1))) (>= sn 0)))
0.07user 0.00system 0:00.07elapsed 98%CPU (0avgtext+0avgdata 26512maxresident)k
8inputs+8outputs (0major+1352minor)pagefaults 0swaps
